NAME : census.pruned_global_16.-64718754.tour
COMMENT : Length = -64718754
TYPE : TOUR
DIMENSION : 68
TOUR_SECTION
65
61
58
57
55
48
51
45
36
26
23
21
59
28
12
56
41
29
43
40
2
39
50
3
1
54
66
27
33
34
37
52
47
32
9
8
63
67
64
49
6
35
25
62
14
42
17
31
15
7
60
46
20
18
13
11
4
10
38
5
16
19
22
24
30
44
53
68
-1
EOF
